%%% static parameters %%%
timespan = 1;
Clients_N = [500];
Demand_W = [15];
Lt0 = [4];
Lt1 = [4];
SS_ = [0.85];
DS_D = [20];
K = [200];
MA = [500];
HC = [0.05];
%%% dynamic parameters %%%
lost_ratio_sales_ret_th = 0.0006830995797359716;
lost_ratio_sales_ret_w = 44;
lost_ratio_sales_dis_th = 0.0003761292816700067;
lost_ratio_sales_dis_w = 47;
lost_ratio_sales_fac_th = 0.0006777633170988689;
lost_ratio_sales_fac_w = 39;
stock_customer_MA_mean_relative_th = 0.5711268893779339;
stock_customer_MA_mean_relative_w = 64;
stock_distributor_MA_mean_relative_th = 0.17793722185984195;
stock_distributor_MA_mean_relative_w = 99;
stock_retailer_MA_mean_relative_th = 0.7219454994022381;
stock_retailer_MA_mean_relative_w = 29;
stock_factory_MA_mean_relative_th = 0.6915762328057338;
stock_factory_MA_mean_relative_w = 42;
